HUN,8,6,286
1,29,0,21,3,23,2,26,5,24,4,23
4,27,5,21,2,30,3,25,1,22,0,29
0,26,4,28,5,21,1,29,2,23,3,22
2,29,0,28,4,24,1,28,3,29,5,29
2,29,0,29,3,21,5,22,1,23,4,29
2,22,1,21,4,30,3,29,5,26,0,28
1,25,2,29,4,29,5,28,3,25,0,28
3,21,1,24,2,23,5,24,0,23,4,24
